S = 4;
start = [|3,14,5,0,8,0,0,0,7,6,0,1,10,0,11,0|
0,0,8,0,15,0,0,0,0,5,12,11,3,2,6,0|
0,0,7,0,11,0,0,0,0,3,0,14,0,0,0,0|
0,0,0,0,12,0,3,0,0,0,2,10,8,13,0,0|
0,0,0,0,0,10,1,0,5,0,0,0,0,6,0,3|
1,0,0,0,0,8,5,0,0,0,0,2,0,0,0,16|
16,11,13,0,0,0,12,0,0,0,0,4,1,5,7,15|
0,7,0,0,0,3,15,11,0,0,0,9,13,14,0,0|
0,0,16,0,0,0,0,8,0,12,9,0,2,3,0,0|
0,0,0,0,1,0,9,0,0,0,10,0,0,0,14,0|
0,0,0,7,2,0,10,0,3,1,4,16,0,8,15,9|
9,0,2,11,0,12,16,7,14,8,5,15,6,0,0,0|
15,3,0,0,10,5,2,14,0,0,0,8,0,0,16,6|
0,0,0,10,0,0,0,0,0,0,11,0,0,0,0,13|
0,0,0,0,0,0,0,12,0,13,1,3,15,0,0,0|
7,0,11,0,0,0,0,3,0,15,16,0,0,0,0,0|];